c --- [ banner ] -------------------------------------------------------------
c 
c CaDiCaL Radically Simplified CDCL SAT Solver
c Copyright (c) 2016-2021 A. Biere, M. Fleury, N. Froleyks
c 
c Version 1.5.2 a5f15211db36c3956764e18194dd5bd63bf3b5e6
c g++ (GCC) 9.3.0 -Wall -Wextra -O3 -DNDEBUG
c Fri Oct 21 01:27:37 EDT 2022 Linux gra-login3 3.10.0-1160.66.1.el7.x86_64 x86_64
c 
c --- [ limit ] --------------------------------------------------------------
c 
c setting conflict limit to 200000 conflicts (due to '200000')
c 
c --- [ parsing input ] ------------------------------------------------------
c 
c reading DIMACS file from '33.cubes1994.adj'
c opening file to read '33.cubes1994.adj'
c found 'p cnf 6160 1595477' header
c parsed 1595477 clauses in 16.74 seconds process time
c closing file '33.cubes1994.adj'
c after reading 1457566793 bytes 1390.0 MB
c 
c --- [ options ] ------------------------------------------------------------
c 
c all options are set to their default value
c 
c --- [ solving ] ------------------------------------------------------------
c 
c time measured in process time since initialization
c 
c  seconds    reductions  redundant   irredundant
c          MB     restarts       trail       variables
c            level   conflicts       glue         remaining
c 
c * 16.75 1382  0 0   0    0    0  0% 0 1595422 2434 40%
c { 17.90 1436  0 0   0    0    0  0% 0 1595422 2434 40%
c i 22.65 1531 374 0  16  111  102 31% 25 1595422 2397 39%
c i 23.05 1532 335 0  20  126  115 31% 26 1595422 2396 39%
c i 24.49 1542 256 0  34  182  161 29% 27 1595422 2388 39%
c i 24.62 1542 251 0  35  187  165 29% 28 1595422 2387 39%
c i 25.91 1547 193 0  43  259  207 28% 29 1595422 2386 39%
c - 30.94 1539 173 1  50  300  235 27% 28 552230 2386 39%
c i 31.30 1487 168 1  51  315  247 27% 29 552230 2385 39%
c i 31.54 1429 163 1  55  328  259 27% 29 552230 2384 39%
c i 31.90 1430 161 1  59  345  271 28% 33 552230 2383 39%
c i 31.93 1430 160 1  61  350  274 28% 33 552230 2382 39%
c i 32.98 1431 139 1  76  445  337 26% 32 552230 2381 39%
c i 33.25 1432 121 1  76  543  407 26% 29 552230 2380 39%
c i 33.94 1432 123 1  83  588  450 26% 30 552230 2379 39%
c i 34.37 1433 121 1  89  605  464 26% 31 552230 2378 39%
c i 34.69 1433 119 1  96  637  492 26% 31 552230 2377 39%
c i 35.62 1434 118 1 108  683  534 26% 33 552230 2376 39%
c i 35.62 1434 118 1 108  684  534 26% 33 552230 2375 39%
c i 36.27 1435 109 1 112  775  607 27% 31 552230 2374 39%
c 
c  seconds     reductions  redundant   irredundant
c          MB      restarts       trail       variables
c             level   conflicts       glue         remaining
c 
c i 36.57 1435 107 1 115  814  641 27% 32 552230 2372 39%
c i 36.83 1435 108 1 118  824  649 27% 32 552230 2371 38%
c i 37.33 1435 108 1 121  856  676 27% 32 552230 2370 38%
c i 37.76 1436 109 1 129  887  705 27% 33 552230 2369 38%
c i 38.98 1436 109 1 146  950  761 27% 34 552230 2368 38%
c } 39.50 1437 106 1 152 1000  803 26% 34 552230 2368 38%
c [ 39.50 1437  0 1 152 1000  803  0% 0 552230 2368 38%
c O 39.50 1437 40 1 152 1005  806 25% 15 552230 2368 38%
c i 39.50 1437 40 1 152 1005  806 25% 15 552230 2310 38%
c i 40.09 1437 26 1 152 1142  907 31% 20 552230 2309 37%
c i 40.16 1437 25 1 152 1188  940 31% 20 552230 2308 37%
c - 41.28 1672 25 2 152 1347  941 32% 20 551127 2308 37%
c i 41.56 1627 25 2 152 1360  948 32% 20 551127 2307 37%
c i 41.73 1627 24 2 152 1425  996 32% 19 551127 2306 37%
c i 41.92 1627 24 2 152 1661 1172 32% 20 551127 2305 37%
c i 42.15 1627 24 2 152 1837 1324 32% 19 551127 2304 37%
c - 43.39 1625 25 3 153 2914 1670 32% 21 551115 2304 37%
c ] 43.99 1625 25 3 153 3000 1732 55% 21 551115 2304 37%
c { 43.99 1625 106 3 153 3000 1732 71% 34 551115 2304 37%
c F 44.09 1625 105 3 153 3012 1741 71% 34 551115 2304 37%
c 
c  seconds     reductions  redundant   irredundant
c          MB      restarts       trail       variables
c             level   conflicts       glue         remaining
c 
c i 45.00 1625 100 3 153 3086 1791 69% 32 551115 2303 37%
c i 45.04 1625 99 3 153 3089 1793 69% 32 551115 2302 37%
c i 45.05 1625 99 3 153 3092 1795 69% 32 551115 2301 37%
c i 45.43 1625 94 3 153 3169 1865 67% 31 551115 2300 37%
c i 46.39 1625 94 3 168 3253 1943 66% 33 551115 2299 37%
c i 46.76 1625 92 3 173 3326 2007 64% 31 551115 2298 37%
c i 46.79 1625 91 3 173 3333 2012 64% 32 551115 2297 37%
c i 46.84 1625 91 3 173 3346 2020 64% 32 551115 2296 37%
c i 48.60 1625 87 3 203 3665 2279 61% 33 551115 2295 37%
c i 49.30 1625 85 3 208 3852 2439 59% 32 551115 2294 37%
c i 49.80 1625 85 3 220 3917 2486 59% 33 551115 2293 37%
c i 51.25 1625 85 3 248 4055 2607 58% 34 551115 2292 37%
c i 51.99 1625 82 3 255 4220 2694 56% 34 551115 2291 37%
c i 55.35 1625 84 3 305 4575 3012 54% 34 551115 2290 37%
c i 55.73 1625 84 3 311 4596 3031 54% 34 551115 2289 37%
c p 67.60 1625 83 3 382 5000 5969 53% 35 551058 2247 36%
c d 68.05 1625 83 3 382 5000 5966 53% 35 433602 2246 36%
c - 68.58 1571 83 4 383 5003 2434 53% 35 433602 2246 36%
c # 71.76 1571 74 4 403 6013 3284 51% 34 433602 2246 36%
c } 75.75 1571 69 4 447 7001 4114 51% 33 433602 2246 36%
c 
c  seconds    reductions  redundant   irredundant
c          MB     restarts       trail       variables
c            level   conflicts       glue         remaining
c 
c [ 75.75 1571 25 4 447 7001 4114 55% 21 433602 2246 36%
c - 76.41 1571 26 5 448 7458 3228 51% 22 433602 2246 36%
c I 78.32 1571 28 5 449 10014 5127 49% 24 433602 2246 36%
c - 80.70 1571 30 6 450 10407 3814 48% 25 433602 2246 36%
c - 90.12 1571 44 7 452 13844 4334 48% 34 433602 2246 36%
c p 93.54 1571 47 7 452 15000 8187 48% 37 433602 2246 36%
c ] 93.67 1571 47 7 452 15001 8188 48% 37 433602 2246 36%
c { 93.67 1571 69 7 452 15001 8188 51% 33 433602 2246 36%
c B 93.91 1571 69 7 452 15018 8203 51% 33 433602 2246 36%
c - 97.02 1571 56 8 470 17775 5153 50% 30 433602 2246 36%
c s 97.82 1571 53 8 470 18715 5732 50% 29 431682 2246 36%
c v 105.56 1571 53 8 470 18715 5732 50% 29 431636 2246 36%
c w 105.71 1571 53 8 470 18715 5728 50% 29 431636 2246 36%
c t 105.73 1571 53 8 470 18715 5713 50% 29 431625 2246 36%
c e 106.89 1572 53 8 470 18715 5403 50% 29 429251 986 16%
c s 107.00 1572 53 8 470 18715 5403 50% 29 428267 986 16%
c W 110.77 1393 46 8 482 21019 6831 70% 26 428267 986 16%
c - 111.57 1393 43 9 482 22196 5278 70% 25 428267 986 16%
c - 113.35 1393 36 10 482 27094 5664 70% 23 428267 986 16%
c F 113.72 1393 35 10 484 28021 6300 70% 22 428267 986 16%
c 
c  seconds     reductions    redundant   irredundant
c           MB      restarts        trail       variables
c             level     conflicts       glue        remaining
c 
c p 129.65 1393 38 10 839 30000 9729 69% 24 428267 975 16%
c d 130.16 1393 38 10 839 30000 9569 69% 24 427809 974 16%
c } 131.77 1393 37 10 871 31001 10231 69% 23 427809 974 16%
c [ 131.77 1393 47 10 871 31001 10231 113% 37 427809 974 16%
c - 132.64 1393 43 11 871 32478 6677 106% 34 427809 974 16%
c B 134.19 1393 37 11 874 36022 8404 97% 29 427809 974 16%
c - 135.79 1393 37 12 875 38351 7013 93% 30 427809 974 16%
c - 139.10 1393 37 13 878 44715 8526 86% 30 427809 974 16%
c W 140.80 1393 37 13 878 45025 8772 86% 30 427809 974 16%
c p 144.40 1393 36 13 879 50000 14053 82% 29 427809 974 16%
c - 145.42 1393 35 14 879 51568 9167 82% 29 427809 974 16%
c s 146.49 1393 35 14 879 53768 10693 81% 29 425967 974 16%
c v 152.59 1393 35 14 879 53768 10693 81% 29 425959 974 16%
c w 152.74 1393 35 14 879 53768 10691 81% 29 425959 974 16%
c t 152.75 1393 35 14 879 53768 10690 81% 29 425959 974 16%
c e 153.83 1397 35 14 879 53768 10686 81% 29 425920 956 16%
c s 153.99 1397 35 14 879 53768 10686 81% 29 423302 956 16%
c O 156.34 1397 34 14 880 55027 11478 80% 28 423302 956 16%
c - 158.37 1397 34 15 883 58908 9695 79% 28 423302 956 16%
c ] 159.74 1397 34 15 886 63001 12992 78% 28 423302 956 16%
c 
c  seconds     reductions     redundant   irredundant
c           MB      restarts         trail       variables
c             level     conflicts        glue        remaining
c 
c { 159.74 1397 37 15 886 63001 12992 69% 23 423302 956 16%
c B 172.43 1397 40 15 1310 66029 15502 69% 25 423302 956 16%
c - 174.33 1397 40 16 1367 66715 10941 69% 25 423302 956 16%
c p 192.90 1397 38 16 1819 75000 19943 69% 25 423302 956 16%
c - 193.18 1397 38 17 1819 75010 11563 69% 25 423302 956 16%
c W 195.67 1397 37 17 1827 78030 13945 69% 25 423302 956 16%
c - 207.72 1397 36 18 2228 83793 12357 69% 25 423302 956 16%
c # 224.02 1397 36 18 2641 91031 17615 69% 25 423302 956 16%
c - 226.68 1397 35 19 2658 93065 12841 69% 24 423302 956 16%
c - 237.62 1397 33 20 2809 102828 13230 69% 23 423302 956 16%
c p 242.96 1397 32 20 2815 105000 17870 69% 23 423302 956 16%
c B 243.29 1397 32 20 2815 105032 17889 69% 23 423302 956 16%
c - 257.33 1397 32 21 3189 113077 15377 69% 23 423302 956 16%
c W 263.10 1397 31 21 3212 120035 19735 70% 22 423302 956 16%
c - 266.86 1397 30 22 3307 123813 14559 70% 22 423302 956 16%
c } 268.85 1397 30 22 3319 127004 16628 70% 22 423302 956 16%
c [ 268.85 1397 34 22 3319 127004 16628 78% 28 423302 956 16%
c - 273.08 1397 31 23 3323 135039 14788 76% 27 423302 956 16%
c B 273.73 1397 31 23 3323 136037 15478 76% 27 423302 956 16%
c p 278.01 1397 33 23 3326 140000 21734 76% 28 423302 956 16%
c 
c  seconds     reductions       redundant   irredundant
c           MB      restarts           trail       variables
c             level      conflicts         glue        remaining
c 
c - 281.02 1397 33 24 3327 146750 16661 75% 28 423302 956 16%
c W 284.72 1397 33 24 3328 153039 21147 74% 28 423302 956 16%
c - 287.13 1397 33 25 3328 158949 17535 74% 29 423302 956 16%
c I 293.12 1397 33 25 3331 171041 26304 73% 29 423302 956 16%
c - 294.38 1397 33 26 3331 171638 18387 73% 29 423302 956 16%
c p 304.07 1397 35 26 3335 180002 27291 73% 30 423302 956 16%
c - 309.10 1397 35 27 3338 184815 18062 73% 30 423302 956 16%
c B 313.84 1397 36 27 3342 190042 21509 73% 31 423302 956 16%
c ] 321.39 1397 36 27 3343 197089 26077 73% 31 423302 956 16%
c 1 321.39 1397 36 27 3343 197089 26077 73% 31 423302 956 16%
c 
c --- [ writing output ] -----------------------------------------------------
c 
c writing simplified CNF to DIMACS file 'simp/33.cubes1994.adj.simp1'
c * 321.39 1397 36 27 3343 197089 26077 73% 31 423302 956 16%
c opening file to write 'simp/33.cubes1994.adj.simp1'
c writing 'p cnf 6160 423302' header
c closing file 'simp/33.cubes1994.adj.simp1'
c after writing 202087947 bytes 192.7 MB
c wrote 423302 clauses in 1.19 seconds process time
c 
c --- [ writing extension ] --------------------------------------------------
c 
c writing extension stack to 'simp/33.cubes1994.adj.ext1'
c opening file to write 'simp/33.cubes1994.adj.ext1'
c closing file 'simp/33.cubes1994.adj.ext1'
c after writing 86583 bytes 0.1 MB
c wrote 3839 witnesses in 0.00 seconds process time
c 
c --- [ result ] -------------------------------------------------------------
c 
s SATISFIABLE
c 
c --- [ run-time profiling ] -------------------------------------------------
c 
c process time taken by individual solving procedures
c (percentage relative to process time for solving)
c 
c       261.39   85.80% search
c       170.73   56.04% unstable
c        84.09   27.60% stable
c        43.25   14.20% simplify
c        21.58    7.08% probe
c        16.74    5.50% parse
c        14.07    4.62% vivify
c         5.41    1.78% walk
c         4.29    1.41% elim
c         1.15    0.38% lucky
c         0.53    0.17% subsume
c         0.41    0.13% ternary
c   =================================
c       304.64   94.44% solve
c 
c last line shows process time for solving
c (percentage relative to total process time)
c 
c --- [ statistics ] ---------------------------------------------------------
c 
c chronological:             32794        16.64 %  of conflicts
c conflicts:                197089       646.95    per second
c decisions:                422817      1387.92    per second
c eliminated:                 1278        20.75 %  of all variables
c fixed:                       774        12.56 %  of all variables
c learned:                  193001        97.93 %  per conflict
c learned_lits:           38954383       100.00 %  learned literals
c minimized:                     0         0.00 %  learned literals
c shrunken:               22975177        58.98 %  learned literals
c minishrunken:            3467362         8.90 %  learned literals
c propagations:           13457921         0.04 M  per second
c reduced:                  113619        57.65 %  per conflict
c rephased:                     19     10373.11    interval
c restarts:                   3343        58.96    interval
c stabilizing:                   4        56.87 %  of conflicts
c substituted:                   8         0.13 %  of all variables
c subsumed:                  60565         1.66 %  of all clauses
c strengthened:               5789         0.16 %  of all clauses
c ternary:                    4657         0.71 %  of resolved
c vivified:                     72         0.00 %  of all clauses
c walked:                        5     39417.80    interval
c weakened:                   3065         3.07    average size
c 
c seconds are measured in process time for solving
c 
c --- [ resources ] ----------------------------------------------------------
c 
c total process time since initialization:       322.58    seconds
c total real time since initialization:          323.90    seconds
c maximum resident set size of process:         1860.59    MB
c 
c --- [ shutting down ] ------------------------------------------------------
c 
c exit 10
WARNING! DIMACS header mismatch: wrong number of variables.
============================[ Problem Statistics ]=============================
|                                                                             |
|  Number of variables:          3497                                         |
|  Number of clauses:          423302                                         |
|  Parse time:                   2.79 s                                       |
|  Simplification time:          0.08 s                                       |
|                                                                             |
============================[ Search Statistics ]====================================================
| Conflicts |          ORIGINAL         |          LEARNT          | Num Sols |      SUBGRAPHS      |
|           |    Vars  Clauses Literals |    Limit  Clauses Lit/Cl |          | Canonical Noncanon. |
=====================================================================================================
|       127 |    3405   423329 43759611 |     2000      127     80 |        0 |        42        27 |
|       277 |    3405   423329 43759611 |     2000      277    100 |        0 |        44        27 |
|       522 |    3405   423349 43760056 |     2000      522    108 |        0 |        49        47 |
|      1025 |    3405   423515 43763132 |     2000     1025     96 |        0 |        85       213 |
|      1579 |    3405   423563 43764087 |     2000     1579     98 |        0 |       103       261 |
|      2924 |    3405   424149 43773806 |     3601     1925     54 |        0 |       195       847 |
|      4089 |    3405   424175 43774201 |     3601     3090     75 |        0 |       195       873 |
|      5814 |    3405   424192 43774737 |     5001     3015     72 |        0 |       200       890 |
|     10035 |    3405   425851 43808770 |     6308     4743     43 |        0 |       590      2549 |
|     20658 |    3405   432630 43933188 |     8781     8439     56 |        0 |      2057      9328 |
|     28405 |    3405   434611 43969498 |    11201     6806     29 |        0 |      2540     11309 |
|     51431 |    3405   448988 44223370 |    14807    11238     52 |        0 |      5437     25686 |
|     67218 |    3405   451801 44272840 |    17214    11632     39 |        0 |      5992     28499 |
|     95690 |    3405   460812 44427396 |    20817    12507     32 |        0 |      7372     37510 |
|    141699 |    3405   477629 44719889 |    25613    13312     22 |        1 |     10527     54326 |
|    188612 |    3405   480753 44776150 |    29218    20030     46 |        1 |     11167     57450 |
|    274463 |    3405   500920 45153821 |    35221    26884     52 |        2 |     12687     77616 |
|    388397 |    3405   516328 45384677 |    42412    26209     33 |        2 |     13864     93024 |
|    549623 |    3405   529765 45603384 |    50831    26454     21 |        2 |     15020    106461 |
|    781976 |    3405   540435 45819169 |    60433    38809     39 |        2 |     16092    117131 |
|   1123240 |    3405   549174 45942794 |    72420    51060     56 |        2 |     17114    125870 |
|   1657850 |    3405   584996 46466974 |    88033    68283     46 |        2 |     19465    161692 |
|   2424709 |    3405   603673 46753824 |   107218    59127     29 |        2 |     20756    180369 |
|   3606787 |    3397   661487 47789559 |   130016   120203     60 |        2 |     25118    240173 |
|   5370739 |    3397   742028 49081640 |   158823   158562     61 |        2 |     29315    320714 |
=====================================================================================================
Number of solutions   : 2
Canonical subgraphs   : 33065          (5 /sec)
          order  3    : 1              (250000 /sec)
          order  4    : 1              (500000 /sec)
          order  5    : 1              (250000 /sec)
          order  6    : 1              (55556 /sec)
          order  7    : 1              (8333 /sec)
          order  8    : 2              (1288 /sec)
          order  9    : 6              (300 /sec)
          order 10    : 22             (89 /sec)
          order 11    : 80             (25 /sec)
          order 12    : 436            (7 /sec)
          order 13    : 2325           (4 /sec)
          order 14    : 19894          (5 /sec)
          order 15    : 3420           (8 /sec)
          order 16    : 3979           (5 /sec)
          order 17    : 2440           (3 /sec)
          order 18    : 342            (3 /sec)
          order 19    : 96             (3 /sec)
          order 20    : 9              (5 /sec)
          order 21    : 7              (5 /sec)
          order 22    : 2              (1 /sec)
Noncanonical subgraphs: 369575         (305 /sec)
          order  3    : 0              (-nan /sec)
          order  4    : 0              (-nan /sec)
          order  5    : 0              (-nan /sec)
          order  6    : 0              (-nan /sec)
          order  7    : 0              (-nan /sec)
          order  8    : 0              (-nan /sec)
          order  9    : 0              (-nan /sec)
          order 10    : 0              (-nan /sec)
          order 11    : 0              (-nan /sec)
          order 12    : 0              (-nan /sec)
          order 13    : 8535           (8213 /sec)
          order 14    : 38611          (2085 /sec)
          order 15    : 279482         (279 /sec)
          order 16    : 26160          (329 /sec)
          order 17    : 16122          (180 /sec)
          order 18    : 606            (35 /sec)
          order 19    : 54             (19 /sec)
          order 20    : 0              (-nan /sec)
          order 21    : 0              (-nan /sec)
Canonicity checking   : 6898.43 s
Noncanonicity checking: 1210.38 s
Total canonicity time : 8108.81 s
database reductions   : 156
restarts              : 12286
conflicts             : 7623685        (583 /sec)
decisions             : 9973925        (0.00 % random) (763 /sec)
propagations          : 364732432      (27907 /sec)
conflict literals     : 771742542      (57.45 % deleted)
actual reward         : 0.255797
Memory used           : 646.00 MB
CPU time              : 13069.7 s

UNSATISFIABLE
